100
32
20
32
4
10
6
27
30
15
8
27
17
31
17
12
16
30
12
4
8
12
22
31
18
17
15
5
3
4
21
32
19
23
10
16
32
15
19
1
12
11
30
9
1
30
22
5
27
2
4
17
29
29
5
27
16
20
16
4
7
7
3
32
2
18
13
3
3
29
11
22
2
18
21
3
6
1
8
17
17
10
5
4
5
27
25
17
1
21
5
9
5
26
7
1
4
17
4
32
6
5